N = 6;
M = 12;
Edge_Start = [1, 1, 2, 3, 4, 5, 2, 4, 3, 6, 5, 6];
Edge_End = [2, 4, 3, 6, 5, 6, 1, 1, 2, 3, 4, 5];
L = [11, 8, 8, 10, 1, 1, 11, 8, 8, 10, 1, 1];
T = [16, 13, 6, 10, 1, 1, 16, 13, 6, 10, 1, 1];
Lower_Bound = [0, 16, 22, 13, 14, 15];
Upper_Bound = [0, 16, 22, 13, 14, 15];
Start = 1;
End = 6;
Time = 15;
